NAME        infile_comments2
ROWS
 N  obj
COLUMNS
    MARK0000  'MARKER'                 'INTORG'
    x1        obj       3
    x2        obj       5
    x3        obj       6
    x4        obj       9
    x5        obj       10
    x6        obj       10
    x7        obj       0
    MARK0001  'MARKER'                 'INTEND'
RHS
BOUNDS
 BV BOUND     x1
 BV BOUND     x2
 BV BOUND     x3
 BV BOUND     x4
 BV BOUND     x5
 BV BOUND     x6
 BV BOUND     x7
ENDATA
